
  32   50
  12   13    6    6   12   19   16   15    2    9   10   10   18   15    0   17   11   20   12   18    6   11    9    4   10   22   13    5    5   12    0   14    0    0    0    0    0    0    0    0    0    0    0    0    0    0    0    0    0    0

   0   0   0   0   0   0   0   0   0   0   0   0   0   0   0   0   0   0   0   0   0   0   0   0   0   0   0   0   0   0   0   0   0   0   0   0   0   0   0   0   0   0   0   0   0   0   0   0   0   0   0  11 2 3 4 5 7 8 10 14 17 19 22 
   7   0   0   0   0   0   0   6   0   0   0   0   5   0   0   0   0   0   0   0   0   0   0   0   4   0   0   0   0   0   0   0   0   0   0   0   0   0   0   0   0   0   0   0   0   0   0   0   0   0   0   6 27 26 18 13 12 11 
   4   0   0   0   0   0   0   0   0   0   0   0   0   0   5   0   5   0   0   0   0   4   0   0   0   0   9   0   0   0   0   0   0   0   0   0   0   0   0   0   0   0   0   0   0   0   0   0   0   0   0   4 31 16 13 6 
   4   0   0   0   1   1   0   0   0   0   0   0   0   2   0   0   0   0   0   5   9   0   0   0   0   7   0   0   0   0   0   0   0   0   0   0   0   0   0   0   0   0   0   0   0   0   0   0   0   0   0   4 31 20 13 9 
   7   0   0   0   0   0   0   4   0   0   0   0   2   6   0   0   8   0   0   0   0   0   0   0   0   0   6   7   0   2   0   0   0   0   0   0   0   0   0   0   0   0   0   0   0   0   0   0   0   0   0   3 30 18 6 
  10   5   0   0   0   0   6   0  10   0   0   0   0   1   0   0   0   5   0   1   0   0   0   0   0   0   8   0   0   0   0   0   0   0   0   0   0   0   0   0   0   0   0   0   0   0   0   0   0   0   0   4 26 25 21 20 
   2   0   0   0   0   0   0   0   0   0   0   9   0   2   0   0   0   0   0   0   0   0   0   0   0   0   0   8   0   0   0   0   0   0   0   0   0   0   0   0   0   0   0   0   0   0   0   0   0   0   0   4 30 21 20 15 
   5   0   0   0   0   0   9   0   0   0   0   0   0   0   0   0   0   0   0   0   0   0   0   0   0   0   2   0   0   0   4   0   0   0   0   0   0   0   0   0   0   0   0   0   0   0   0   0   0   0   0   4 30 21 20 18 
   6   0   0   0   0   0   0   0   8   0   0   0   0   0   0   0   0   0   0   0  10   0   1   0   0   0   0   0   0   0   4   0   0   0   0   0   0   0   0   0   0   0   0   0   0   0   0   0   0   0   0   4 25 24 18 15 
  10   0  10   0   0   0   1   0   0   0   0   0   0   0   1   0   0   0   0   0   4   0   7   0   0   0   0   0   0   0   0   0   0   0   0   0   0   0   0   0   0   0   0   0   0   0   0   0   0   0   0   4 30 27 24 16 
   7   0   0   0   0   0  10   0   0   0   0   0   0   0   0   0   0   0   0   0   0   3   0   0   0   0   0   0   0   0   0   0   0   0   0   0   0   0   0   0   0   0   0   0   0   0   0   0   0   0   0   2 21 20 
   2   0   0   0   0   0   3   8   0   0   0   0   0   0   0   0   0   0   0   0   0   0   4   0   0   0   0  10   0   0   0   0   0   0   0   0   0   0   0   0   0   0   0   0   0   0   0   0   0   0   0   4 30 29 25 23 
   4   0   0   0   0   0   0   0   0   0   0   0   0   9   0   0   0   8   0   6   0   0   0   0   0  10   0   0   4   0   0   0   0   0   0   0   0   0   0   0   0   0   0   0   0   0   0   0   0   0   0   3 30 29 23 
   8   3   0   4   6   0   0   0   0   0   0   0   0   2   0   0   9   0   0   0   0   0   0   0   0   0   6   0   2   0   7   0   0   0   0   0   0   0   0   0   0   0   0   0   0   0   0   0   0   0   0   3 31 29 28 
   2   0   0   0   0   0   5   0   0   0   0   0   0   6   0   0   0   0   8   0   0   0   0   0   0   0   0   0   0   0   0   0   0   0   0   0   0   0   0   0   0   0   0   0   0   0   0   0   0   0   0   2 29 23 
   2   0   4   0   0   0   0   4   0   0   0   0   0   0   0   0   0   0   9   0   0   0   0   0   0   0   5   0   0   0   0   0   7   0   0   0   0   0   0   0   0   0   0   0   0   0   0   0   0   0   0   2 29 23 
   6   0   0   0   0   0   0   6   0   0   0   2   0   0   0   0   0   0   8   0   0   0   0   0   0   0   6   0   0   0   0   0   0   0   0   0   0   0   0   0   0   0   0   0   0   0   0   0   0   0   0   1 20 
   9   0   0   0   0   0   3   0   0   0   0   0   0   0   0   0   0   0   9   0   0   0   0   7   0   0   0   0   0   0   0   0   0   0   0   0   0   0   0   0   0   0   0   0   0   0   0   0   0   0   0   2 29 28 
   9   7   0   0   0   0   0   5   0   0   6   0   0   0   4   0   0   0   0   0   0   0   0   8   0   0   0   0   0   0   0   0   5   0   0   0   0   0   0   0   0   0   0   0   0   0   0   0   0   0   0   2 30 29 
   4   0   0   1   0   0   0   0   0   0   1   0   0   0   9   0   0   0   5   0   0   0   0   0   0   0   0   0   5   0   0   0   0   0   0   0   0   0   0   0   0   0   0   0   0   0   0   0   0   0   0   1 23 
   4   8   0   0   0   0   0   0   2   2   0   0   0   5   0   0   0   0   0   0   0   0   0   0   0   0   0   0   0   0   7   0   0   0   0   0   0   0   0   0   0   0   0   0   0   0   0   0   0   0   0   1 24 
   7   0   0   0   0   0  10   0   0   0   0   0   5   1   0   0   0   5   0   0   9   0   0   0   0   0   0   0   0   0   0   0   3   0   0   0   0   0   0   0   0   0   0   0   0   0   0   0   0   0   0   1 23 
   1   0   0   5   0   0   0   0   0   0   6   0   0   2   0   0   0   0   0   0   0   0   0   0   0   0   0   0   0   0   0   0   5   0   0   0   0   0   0   0   0   0   0   0   0   0   0   0   0   0   0   1 28 
  10   0   0   0   0   0   0   2   0   0   5   0   0   0   0   0   0   2   0   3   0   6   0   0   0   0   0   0   4   0   0   0   0   0   0   0   0   0   0   0   0   0   0   0   0   0   0   0   0   0   0   1 29 
   6   0   0   2   0   4   0   0   0   0   0   0   4   0   0   0   0   0   0   3   0   0   0   0   0   0   0   0   0   0   0   0   0   0   0   0   0   0   0   0   0   0   0   0   0   0   0   0   0   0   0   1 28 
   7   0   0   0   0  10   0   0   0   0   0   0   0   0   0   0   0   9   0   0   0   0   0   0   0   0   0   0   0   0   0   0  10   0   0   0   0   0   0   0   0   0   0   0   0   0   0   0   0   0   0   1 28 
   5   1   0   0   0   0   0   0   0   0   1   0   0   0   3   0   0   0   0   7   0   0  10   0   0   0   0   0   0   5   0   0   3   0   0   0   0   0   0   0   0   0   0   0   0   0   0   0   0   0   0   1 28 
   8   0   0   0   0   0   0   0   0   0   0   0   0   0   1   0   0   0   0   0   0   0   0   0   0   0   0   0   0   0   0   0   0   0   0   0   0   0   0   0   0   0   0   0   0   0   0   0   0   0   0   1 32
   7   4   0   0   0   0   4   0   0   0   0   0   7   0   0   0   0   0   0  10   0   0   0   2   0   0   4   0   0   0   0   0   0   0   0   0   0   0   0   0   0   0   0   0   0   0   0   0   0   0   0   1 32
  10   0   0   0   0   0   0   0   7   0   0   0   0   6  10   0   0   0   0   0   0   0   0   4   0   0   0   4   0   0   0   0   0   0   0   0   0   0   0   0   0   0   0   0   0   0   0   0   0   0   0   1 32
   4   0   5   0   0   0   0   0   0   0   0   0   0   8   0   0   0   0   0   0   8   0   0   0   0   0   9   0   0   0   0   0   7   0   0   0   0   0   0   0   0   0   0   0   0   0   0   0   0   0   0   1 32
   0   0   0   0   0   0   0   0   0   0   0   0   0   0   0   0   0   0   0   0   0   0   0   0   0   0   0   0   0   0   0   0   0   0   0   0   0   0   0   0   0   0   0   0   0   0   0   0   0   0   0   0 
